(set-logic ALL)
(declare-var i (BitVec 32))
(declare-var i! (BitVec 32))
(declare-var j (BitVec 32))
(declare-var j! (BitVec 32))
(declare-var conf_0 (BitVec 32))
(declare-var conf_0! (BitVec 32))
(declare-var conf_1 (BitVec 32))
(declare-var conf_1! (BitVec 32))
(declare-var conf_2 (BitVec 32))
(declare-var conf_2! (BitVec 32))
(declare-var conf_3 (BitVec 32))
(declare-var conf_3! (BitVec 32))
(declare-var conf_4 (BitVec 32))
(declare-var conf_4! (BitVec 32))
(declare-var i_0 (BitVec 32))
(declare-var i_0! (BitVec 32))
(declare-var i_1 (BitVec 32))
(declare-var i_1! (BitVec 32))
(declare-var i_2 (BitVec 32))
(declare-var i_2! (BitVec 32))
(declare-var i_3 (BitVec 32))
(declare-var i_3! (BitVec 32))
(declare-var j_0 (BitVec 32))
(declare-var j_0! (BitVec 32))
(declare-var j_1 (BitVec 32))
(declare-var j_1! (BitVec 32))
(declare-var j_2 (BitVec 32))
(declare-var j_2! (BitVec 32))
(declare-var j_3 (BitVec 32))
(declare-var j_3! (BitVec 32))
(declare-var conf_0_0 (BitVec 32))
(declare-var conf_0_0! (BitVec 32))
(declare-var conf_0_1 (BitVec 32))
(declare-var conf_0_1! (BitVec 32))
(declare-var conf_0_2 (BitVec 32))
(declare-var conf_0_2! (BitVec 32))
(declare-var conf_1_0 (BitVec 32))
(declare-var conf_1_0! (BitVec 32))
(declare-var conf_2_0 (BitVec 32))
(declare-var conf_2_0! (BitVec 32))
(declare-var conf_3_0 (BitVec 32))
(declare-var conf_3_0! (BitVec 32))
(declare-var conf_4_0 (BitVec 32))
(declare-var conf_4_0! (BitVec 32))
(declare-var conf_4_1 (BitVec 32))
(declare-var conf_4_1! (BitVec 32))
(declare-var conf_4_2 (BitVec 32))
(declare-var conf_4_2! (BitVec 32))
(synth-fun inv-f((parameter0 (BitVec 32))(parameter1 (BitVec 32))(parameter2 (BitVec 32))(parameter3 (BitVec 32))(parameter4 (BitVec 32))(parameter5 (BitVec 32))(parameter6 (BitVec 32))(parameter7 (BitVec 32))(parameter8 (BitVec 32))(parameter9 (BitVec 32))(parameter10 (BitVec 32))(parameter11 (BitVec 32))(parameter12 (BitVec 32))(parameter13 (BitVec 32))(parameter14 (BitVec 32))(parameter15 (BitVec 32))(parameter16 (BitVec 32))(parameter17 (BitVec 32))(parameter18 (BitVec 32))(parameter19 (BitVec 32))(parameter20 (BitVec 32))(parameter21 (BitVec 32))(parameter22 (BitVec 32))(parameter23 (BitVec 32)))Bool) 
(constraint (=> (and (and (and (and (and (and (and (and (and (and (and (and (and (= i i_1) (= j j_1) ) (= conf_0 conf_0_0) ) (= conf_1 conf_1_0) ) (= conf_2 conf_2_0) ) (= conf_3 conf_3_0) ) (= conf_4 conf_4_0) ) (= conf_0_0 (_ bv5 32)) ) (= conf_1_0 (_ bv0 32)) ) (= conf_2_0 (_ bv7 32)) ) (= conf_3_0 (_ bv5 32)) ) (= conf_4_0 (_ bv2 32)) ) (= i_1 (_ bv1 32)) ) (= j_1 (_ bv20 32)) )(inv-f i j conf_0 conf_1 conf_2 conf_3 conf_4 i_0 i_1 i_2 i_3 j_0 j_1 j_2 j_3 conf_0_0 conf_0_1 conf_0_2 conf_1_0 conf_2_0 conf_3_0 conf_4_0 conf_4_1 conf_4_2 )))
(constraint (=> (and (inv-f i j conf_0 conf_1 conf_2 conf_3 conf_4 i_0 i_1 i_2 i_3 j_0 j_1 j_2 j_3 conf_0_0 conf_0_1 conf_0_2 conf_1_0 conf_2_0 conf_3_0 conf_4_0 conf_4_1 conf_4_2 ) (or (and (and (and (and (and (and (and (and (and (and (and (and (= i_2 i) (= j_2 j) ) (= conf_0_1 conf_0) ) (= conf_4_1 conf_4) ) (= i_2 i!) ) (= j_2 j!) ) (= conf_0_1 conf_0!) ) (= conf_4_1 conf_4!) ) (= conf_0 conf_0!) ) (= conf_1 conf_1!) ) (= conf_2 conf_2!) ) (= conf_3 conf_3!) ) (= conf_4 conf_4!) ) (and (and (and (and (and (and (and (and (and (and (and (and (and (and (and (and (and (and (= i_2 i) (= j_2 j) ) (= conf_0_1 conf_0) ) (= conf_4_1 conf_4) ) (bvuge j_2 i_2) ) (= i_3 (bvadd i_2 (_ bv2 32))) ) (= conf_0_2 (_ bv643 32)) ) (= j_3 (bvsub j_2 (_ bv1 32))) ) (= conf_4_2 (bvadd conf_0_2 (_ bv80 32))) ) (= i_3 i!) ) (= j_3 j!) ) (= conf_0_2 conf_0!) ) (= conf_4_2 conf_4!) ) (= conf_1 conf_1_0) ) (= conf_1! conf_1_0) ) (= conf_2 conf_2_0) ) (= conf_2! conf_2_0) ) (= conf_3 conf_3_0) ) (= conf_3! conf_3_0) ) ) )(inv-f i! j! conf_0! conf_1! conf_2! conf_3! conf_4! i_0! i_1! i_2! i_3! j_0! j_1! j_2! j_3! conf_0_0! conf_0_1! conf_0_2! conf_1_0! conf_2_0! conf_3_0! conf_4_0! conf_4_1! conf_4_2! )))
(constraint (=> (inv-f i j conf_0 conf_1 conf_2 conf_3 conf_4 i_0 i_1 i_2 i_3 j_0 j_1 j_2 j_3 conf_0_0 conf_0_1 conf_0_2 conf_1_0 conf_2_0 conf_3_0 conf_4_0 conf_4_1 conf_4_2 )(or (not (and (and (and (and (and (and (= i i_2) (= j j_2) ) (= conf_0 conf_0_1) ) (= conf_1 conf_1_0) ) (= conf_2 conf_2_0) ) (= conf_3 conf_3_0) ) (= conf_4 conf_4_1) )) (not (and (not (bvuge j_2 i_2)) (not (= j_2 (_ bv13 32))) )) )))
(check-synth)

